\ LP format - for model browsing. Use MPS format to capture full model detail.
Maximize
  4 x_1 + 10 x_2 + x_3 + 5 x_4 + 2 x_5
Subject To
 C_1: 3 x_3 + 3 x_4 <= 3
 C_2: 10 x_1 + x_5 <= 5
 C_3: 7 x_2 + 9 x_3 + 2 x_4 + 5 x_5 <= 11
 C_4: 5 x_3 + 5 x_4 <= 5
 C_5: 7 x_3 + x_5 <= 4
 C_6: 3 x_1 + 9 x_2 + 5 x_5 <= 8
 C_7: x_1 + 4 x_2 + 7 x_3 + 8 x_4 + x_5 <= 10
 C_8: 7 x_1 + 4 x_2 + 6 x_3 + 4 x_4 <= 10
 C_9: 10 x_1 + 4 x_5 <= 7
 C_10: 8 x_3 + 10 x_5 <= 9
Bounds
Binaries
 x_1 x_2 x_3 x_4 x_5
End
